unsat
(:SPACER-cluster-out-of-gas           25
 :SPACER-conj                         25
 :SPACER-expand-pob-undef             67
 :SPACER-inductive-gen                152
 :SPACER-inductive-gen-weaken-fail    230
 :SPACER-inductive-gen-weaken-success 61
 :SPACER-inductive-level              23
 :SPACER-max-depth                    23
 :SPACER-max-query-lvl                23
 :SPACER-non-local-gen                34
 :SPACER-num-active-lemmas            38
 :SPACER-num-ctp-blocked              30
 :SPACER-num-invariants               31
 :SPACER-num-is_invariant             515
 :SPACER-num-lemma-jumped             75
 :SPACER-num-lemmas                   174
 :SPACER-num-pobs                     120
 :SPACER-num-propagations             341
 :SPACER-num-queries                  134
 :SPACER-num-reach-queries            7
 :SPACER-num-reuse-reach-facts        7
 :SPACER-subsume-pob                  7
 :SPACER-subsume-success              30
 :added-eqs                           151580
 :arith-assert-diseq                  49706
 :arith-assert-lower                  86488
 :arith-assert-upper                  117144
 :arith-bound-prop                    12554
 :arith-branch-var                    180
 :arith-conflicts                     144
 :arith-eq-adapter                    21634
 :arith-fixed-eqs                     27362
 :arith-gcd-conflicts                 98
 :arith-gcd-tests                     2022
 :arith-gomory-cuts                   34
 :arith-ineq-splits                   180
 :arith-num-rows                      146
 :arith-offset-eqs                    6632
 :arith-patches                       338
 :arith-patches_succ                  72
 :arith-pivots                        5354
 :arith-row-summations                58498
 :arith-tableau-max-columns           266
 :arith-tableau-max-rows              146
 :conflicts                           3214
 :decisions                           107604
 :del-clause                          67226
 :final-checks                        1432
 :iuc_solver.num_proxies              209
 :max-memory                          38.63
 :memory                              37.43
 :minimized-lits                      566
 :mk-bool-var                         60226
 :mk-clause                           70864
 :num-allocs                          865050006
 :num-checks                          3186
 :pool_solver.checks                  1593
 :pool_solver.checks.sat              254
 :pool_solver.checks.undef            282
 :propagations                        417866
 :rlimit-count                        2169222
 :time                                1.57
 :time.iuc_solver.get_iuc             0.11
 :time.iuc_solver.get_iuc.hyp_reduce1 0.02
 :time.iuc_solver.get_iuc.hyp_reduce2 0.05
 :time.iuc_solver.get_iuc.learn_core  0.01
 :time.pool_solver.proof              0.02
 :time.pool_solver.smt.total          0.96
 :time.pool_solver.smt.total.sat      0.28
 :time.pool_solver.smt.total.undef    0.26
 :time.spacer.ctp                     0.00
 :time.spacer.init_rules              0.00
 :time.spacer.mbp                     0.03
 :time.spacer.solve                   1.54
 :time.spacer.solve.propagate         0.33
 :time.spacer.solve.reach             1.21
 :time.spacer.solve.reach.children    0.08
 :time.spacer.solve.reach.cluster     0.12
 :time.spacer.solve.reach.gen.global  0.07
 :time.spacer.solve.reach.gen.ind     0.32
 :time.spacer.solve.reach.is-reach    0.02)
(:max-memory   38.63
 :memory       37.43
 :num-allocs   865050006
 :rlimit-count 2169222
 :time         1.57
 :total-time   1.59)
